Running HiGHS 1.6.0: Copyright (c) 2023 HiGHS under MIT licence terms
Number of BV entries in BOUNDS section is 125250
MIP  d90c41bc613a4c3196d8e185902d1e2b-pulp has 998 rows; 125250 cols; 250746 nonzeros; 125250 integer variables
Presolving model
998 rows, 125250 cols, 250746 nonzeros
998 rows, 125250 cols, 250746 nonzeros
Objective function is integral with scale 1

Solving MIP model with:
   998 rows
   125250 cols (125250 binary, 0 integer, 0 implied int., 0 continuous)
   250746 nonzeros

        Nodes      |    B&B Tree     |            Objective Bounds              |  Dynamic Constraints |       Work      
     Proc. InQueue |  Leaves   Expl. | BestBound       BestSol              Gap |   Cuts   InLp Confl. | LpIters     Time

         0       0         0   0.00%   0               inf                  inf        0      0      0         0     5.2s
         0       0         0   0.00%   248.1633333     inf                  inf        0      0      4      2890     7.6s
         0       0         0   0.00%   248.1633333     inf                  inf     1880    427     12      4946    13.8s
         0       0         0   0.00%   248.1633333     inf                  inf     3949    942     31      7211    21.9s
         0       0         0   0.00%   248.1633333     inf                  inf     5679   1305     41      8823    27.9s
         0       0         0   0.00%   248.1633333     inf                  inf     7045   1583     55     10269    33.4s
         0       0         0   0.00%   248.1633333     inf                  inf     8288   1970     66     12176    40.4s
         0       0         0   0.00%   248.1633333     inf                  inf     9524   2059     72     15200    50.8s
         0       0         0   0.00%   248.1633333     inf                  inf    10308   2277     78     16915    56.7s
         0       0         0   0.00%   248.1633333     inf                  inf    11014   2489     80     18916    63.7s
         0       0         0   0.00%   248.1633333     inf                  inf    11706   2708     84     20501    69.3s
         0       0         0   0.00%   248.1633333     inf                  inf    12349   2531     88     22186    75.3s
         0       0         0   0.00%   248.1633333     inf                  inf    12349    934    220    728390  1113.5s

Symmetry detection completed in 6.1s
Found 145 full orbitope(s) acting on 117750 columns

        14       2         6  68.75%   248.1633333     inf                  inf    10623    934    220    729880  1118.6s
        29       7        11  70.12%   248.1633333     inf                  inf    10623    934    220    731722  1124.7s
        48      11        18  70.32%   248.1633333     inf                  inf    10623    934    221    733510  1130.9s
        63      16        23  70.34%   248.1633333     inf                  inf    10623    934    221    735061  1136.2s
        81      22        29  70.34%   248.1633333     inf                  inf    10623    934    221    736688  1141.7s
        96      27        34  70.34%   248.1633333     inf                  inf    10623    934    221    738351  1147.3s
       104      30        37  82.84%   248.1633333     inf                  inf    11392   1140    221    740482  1154.5s

        Nodes      |    B&B Tree     |            Objective Bounds              |  Dynamic Constraints |       Work      
     Proc. InQueue |  Leaves   Expl. | BestBound       BestSol              Gap |   Cuts   InLp Confl. | LpIters     Time

       122      31        43  84.32%   248.1633333     inf                  inf    11392   1140    222    741973  1159.9s
       137      36        47  84.32%   248.1633333     inf                  inf    11392   1140    222    743717  1165.5s
       157      40        53  84.32%   248.1633333     inf                  inf    11392   1140    222    745377  1171.0s
       184      47        60  84.32%   248.1633333     inf                  inf    11392   1140    223    747568  1178.0s
       206      69        68  84.32%   248.1633333     inf                  inf    11056   1362    225    751245  1189.5s
       224      71        74  84.32%   248.1633333     inf                  inf    11056   1362    229    752786  1194.5s
       249      79        82  84.32%   248.1633333     inf                  inf    11056   1362    235    754409  1200.0s
       272      87        89  84.32%   248.1633333     inf                  inf    11056   1362    238    755975  1205.1s
       292      93        94  84.32%   248.1633333     inf                  inf    11056   1362    238    757704  1210.6s
       306     110        97  84.32%   248.1633333     inf                  inf    11873   1577    239    760707  1219.9s
       338     117       107  84.32%   248.1633333     inf                  inf    11873   1577    243    763023  1227.7s
       357     119       112  84.32%   248.1633333     inf                  inf    11873   1577    243    764577  1232.7s
       382     123       118  84.32%   248.1633333     inf                  inf    11873   1577    243    766783  1239.6s
       400     123       123  84.32%   248.1633333     inf                  inf    11873   1577    245    768647  1245.0s
       405     154       125  84.32%   248.1633333     inf                  inf    11584   1795    246    771421  1253.0s
       419     155       130  84.32%   248.1633333     inf                  inf    11584   1795    247    772970  1258.1s
       436     160       136  84.32%   248.1633333     inf                  inf    11584   1795    248    774750  1263.9s
       451     166       140  84.32%   248.1633333     inf                  inf    11584   1795    249    776871  1270.6s
       471     167       147  84.32%   248.1633333     inf                  inf    11584   1795    249    778807  1276.8s
       488     169       150  84.32%   248.1633333     inf                  inf    11584   1795    249    780723  1282.8s

        Nodes      |    B&B Tree     |            Objective Bounds              |  Dynamic Constraints |       Work      
     Proc. InQueue |  Leaves   Expl. | BestBound       BestSol              Gap |   Cuts   InLp Confl. | LpIters     Time

       505     188       158  84.32%   248.1633333     inf                  inf    12272   1043    250    783344  1291.5s
       530     193       166  84.32%   248.1633333     inf                  inf    12272   1043    252    785363  1298.2s
       556     198       174  84.32%   248.1633333     inf                  inf    12272   1043    255    787049  1304.0s
       586     201       187  84.32%   248.1633333     inf                  inf    12272   1043    255    788664  1309.6s
       607     212       197  84.32%   248.1633333     inf                  inf    10377   1250    257    791517  1319.0s
       619     213       200  84.32%   248.1633333     inf                  inf    10377   1250    258    793519  1325.2s
       639     215       207  84.32%   248.1633333     inf                  inf    10377   1250    261    795307  1330.7s
       674     216       223  84.32%   248.1633333     inf                  inf    10377   1250    261    797005  1336.5s
       704     220       237  84.32%   248.1633333     inf                  inf    10377   1250    261    798662  1341.9s
       708     229       239  84.32%   248.1633333     inf                  inf    11108   1468    262    801198  1349.2s
       725     229       245  84.32%   248.1633333     inf                  inf    11108   1468    263    802967  1354.9s
       749     234       252  84.32%   248.1633333     inf                  inf    11108   1468    268    804656  1360.7s
       761     238       256  84.32%   248.1633333     inf                  inf    11108   1468    268    806535  1366.4s
       779     243       262  84.32%   248.1633333     inf                  inf    11108   1468    268    808647  1373.0s
       803     251       270  84.32%   248.1633333     inf                  inf    11108   1468    268    810310  1378.6s
       808     263       272  84.32%   248.1633333     inf                  inf    11882   1683    269    812102  1384.4s
       824     263       277  84.32%   248.1633333     inf                  inf    11882   1683    272    813593  1389.4s
       845     269       284  84.32%   248.1633333     inf                  inf    11882   1683    272    815478  1395.7s
       864     274       290  84.32%   248.1633333     inf                  inf    11882   1683    273    817150  1401.2s
       885     275       299  84.32%   248.1633333     inf                  inf    11882   1683    275    818672  1406.2s

        Nodes      |    B&B Tree     |            Objective Bounds              |  Dynamic Constraints |       Work      
     Proc. InQueue |  Leaves   Expl. | BestBound       BestSol              Gap |   Cuts   InLp Confl. | LpIters     Time

       911     290       309  84.32%   248.1633333     inf                  inf     9403   1889    276    821882  1417.0s
       920     290       312  84.32%   248.1633333     inf                  inf     9403   1889    278    823508  1422.3s
       924     290       314  84.32%   248.1633333     inf                  inf     9403   1889    278    825705  1428.9s
       929     290       316  84.32%   248.1633333     inf                  inf     9403   1889    278    829052  1439.0s
       942     291       321  84.32%   248.1633333     inf                  inf     9403   1889    280    830647  1444.2s
       960     292       328  84.32%   248.1633333     inf                  inf     9403   1889    282    832215  1449.4s
       983     295       337  84.32%   248.1633333     inf                  inf     9403   1889    283    833724  1454.7s
      1003     300       345  84.32%   248.1633333     inf                  inf     9403   1889    284    835304  1460.1s
      1013     313       348  84.32%   248.1633333     inf                  inf    10100   1112    284    838456  1470.0s
      1022     313       352  84.32%   248.1633333     inf                  inf    10100   1112    284    843929  1486.2s
      1035     313       357  84.32%   248.1633333     inf                  inf    10100   1112    286    845691  1491.9s
      1052     315       362  84.32%   248.1633333     inf                  inf    10100   1112    288    847355  1497.5s
      1070     320       367  84.32%   248.1633333     inf                  inf    10100   1112    289    848929  1502.5s
      1094     326       375  84.32%   248.1633333     inf                  inf    10100   1112    290    850680  1508.2s
      1114     348       382  84.35%   248.1633333     inf                  inf    10888   1360    292    863715  1541.6s
      1140     351       393  84.38%   248.1633333     inf                  inf    10888   1360    296    865524  1547.1s
      1168     357       402  84.38%   248.1633333     inf                  inf    10888   1360    298    867228  1552.5s
      1200     365       412  84.38%   248.1633333     inf                  inf    10888   1360    300    868853  1557.7s

Restarting search from the root node
Model after restart has 750 rows, 124996 cols (124996 bin., 0 int., 0 impl., 0 cont.), and 249990 nonzeros

      1214       0         0   0.00%   248.1633333     inf                  inf     1359      0      0    869550  1566.7s
      1214       0         0   0.00%   248.1633333     inf                  inf     1359    267      3    871738  1570.1s

        Nodes      |    B&B Tree     |            Objective Bounds              |  Dynamic Constraints |       Work      
     Proc. InQueue |  Leaves   Expl. | BestBound       BestSol              Gap |   Cuts   InLp Confl. | LpIters     Time

      1214       0         0   0.00%   248.1633333     inf                  inf     2983    641      7    873410  1575.3s
      1214       0         0   0.00%   248.1633333     inf                  inf     4989   1065     24    875289  1582.1s
      1214       0         0   0.00%   248.1633333     inf                  inf     6523   1341     31    876740  1587.9s
      1214       0         0   0.00%   248.1633333     inf                  inf     7539   1648     38    878160  1593.2s
      1214       0         0   0.00%   248.1633333     inf                  inf     8989   2080     44    880572  1602.0s
      1214       0         0   0.00%   248.1633333     inf                  inf    10403   2271     49    883217  1611.5s
      1214       0         0   0.00%   248.1633333     inf                  inf    11779   2683     53    886133  1622.2s
      1214       0         0   0.00%   248.1633333     inf                  inf    13245   3076     59    888910  1632.6s
      1214       0         0   0.00%   248.1633333     inf                  inf    12722   2984     64    890406  1638.1s
      1214       0         0   0.00%   248.1633333     inf                  inf    13206   3346     70    893103  1648.3s
      1214       0         0   0.00%   248.1633333     inf                  inf    13834   3518     72    894611  1654.0s
      1214       0         0   0.00%   248.1633333     inf                  inf    13617   3691     74    896069  1659.5s
      1214       0         0   0.00%   248.1633333     inf                  inf    14382   2970     76    897501  1665.1s
      1214       0         0   0.00%   248.1633333     inf                  inf    11669   3151     78    898958  1670.6s
      1214       0         0   0.00%   248.1633333     inf                  inf    11669   1179    216     1087k  2139.8s

Symmetry detection completed in 18.8s
Found 512 generators

      1456     241         1   0.00%   248.1633333     inf                  inf    10116   1179    224     1108k  2217.2s
      1666     449         2   0.00%   248.1633333     inf                  inf    10880   1366    224     1130k  2293.3s
      1841     622         3   0.00%   248.1633333     inf                  inf    11629   1547    231     1153k  2375.4s
      2051     830         4   0.00%   248.1633333     inf                  inf    10692   1766    231     1172k  2451.3s
      2254    1031         5   0.00%   248.1633333     inf                  inf    11485   1011    239     1191k  2525.5s

        Nodes      |    B&B Tree     |            Objective Bounds              |  Dynamic Constraints |       Work      
     Proc. InQueue |  Leaves   Expl. | BestBound       BestSol              Gap |   Cuts   InLp Confl. | LpIters     Time

      2414    1189         6   0.00%   248.1633333     inf                  inf     7920   1219    245     1206k  2589.1s
      2546    1319         7   0.00%   248.1633333     inf                  inf     8639   1425    347     1220k  2647.3s
      2663    1434         8   0.00%   248.1633333     inf                  inf    10805   1420    364     1238k  2717.0s
      2838    1607         9   0.00%   248.1633333     inf                  inf    11460   1608    370     1254k  2786.1s
      2932    1608        10   0.00%   248.1633333     inf                  inf    12111   1778    554     1266k  2832.9s
      2949    1712        12   0.00%   248.1633333     inf                  inf    12112   1778    921     1267k  2842.9s
      3072    1833        13   0.00%   248.1633333     inf                  inf    11595   1948    927     1282k  2905.4s
      3152    1833        14   0.00%   248.1633333     inf                  inf    10460   1353    936     1295k  2952.9s
      3166    1833        19   0.00%   248.1633333     inf                  inf    10464   1353    966     1296k  2958.9s
      3173    1918        21   0.00%   248.1633333     inf                  inf    10466   1353    983     1296k  2964.8s
      3259    1917        22   0.00%   248.1633333     inf                  inf    11209   1546   1147     1307k  3006.7s
      3273    2010        25   0.00%   248.1633333     inf                  inf    11211   1546   1162     1308k  3017.1s
      3389    2124        26   0.00%   248.1633333     inf                  inf    11942   1727   1173     1321k  3074.3s
      3475    2123        27   0.00%   248.1633333     inf                  inf    11186   1893   1185     1333k  3120.8s
      3518    2249        28   0.00%   248.1633333     inf                  inf    11187   1893   1190     1337k  3140.7s

Restarting search from the root node
Model after restart has 750 rows, 124794 cols (124794 bin., 0 int., 0 impl., 0 cont.), and 249586 nonzeros

      3518       0         0   0.00%   248.1633333     inf                  inf     1893      0      0     1337k  3149.6s
      3518       0         0   0.00%   249             inf                  inf     1893    323      4     1339k  3153.2s
      3518       0         0   0.00%   249             inf                  inf     4181    821     11     1341k  3160.3s
      3518       0         0   0.00%   249             inf                  inf     5830   1177     31     1342k  3166.5s
      3518       0         0   0.00%   249             inf                  inf     7338   1434     37     1344k  3172.2s

        Nodes      |    B&B Tree     |            Objective Bounds              |  Dynamic Constraints |       Work      
     Proc. InQueue |  Leaves   Expl. | BestBound       BestSol              Gap |   Cuts   InLp Confl. | LpIters     Time

      3518       0         0   0.00%   249             inf                  inf     8739   1685     47     1346k  3179.9s
      3518       0         0   0.00%   249             inf                  inf     9881   2106     51     1348k  3188.7s
      3518       0         0   0.00%   249             inf                  inf    11266   2495     56     1351k  3197.9s
      3518       0         0   0.00%   249             inf                  inf    12393   2554     62     1354k  3208.7s
      3518       0         0   0.00%   249             inf                  inf    12135   2912     66     1356k  3218.0s
      3518       0         0   0.00%   249             inf                  inf    12712   3085     68     1358k  3223.5s

Solving report
  Status            Time limit reached
  Primal bound      inf
  Dual bound        249
  Gap               inf
  Solution status   -
  Timing            3600.19 (total)
                    16.09 (presolve)
                    0.00 (postsolve)
  Nodes             3518
  LP iterations     1531149 (total)
                    0 (strong br.)
                    118141 (separation)
                    1068180 (heuristics)
Writing the solution to /tmp/d90c41bc613a4c3196d8e185902d1e2b-pulp.sol
